p tw 36 39
1 2
2 13
3 4
4 5
5 6
6 7
6 11
7 8
8 9
9 10
10 14
11 12
12 14
13 24
14 15
15 16
16 17
17 18
18 19
19 20
19 31
20 29
21 22
22 23
23 25
24 31
25 26
25 27
26 29
27 28
28 29
29 30
31 32
32 33
33 34
33 21
34 35
35 36
36 3
